
Gurobi 6.5.2 (linux64) logging started Tue Sep 20 21:17:39 2016


Gurobi 6.5.2 (linux64) logging started Tue Sep 20 21:17:39 2016

Optimize a model with 101 rows, 908 columns and 1817 nonzeros
Coefficient statistics:
  Matrix range    [1e+00, 2e+00]
  Objective range [1e+00, 1e+02]
  Bounds range    [1e+00, 1e+00]
  RHS range       [1e+00, 1e+00]
Presolve removed 51 rows and 50 columns
Presolve time: 0.00s
Presolved: 50 rows, 858 columns, 1716 nonzeros
Variable types: 0 continuous, 858 integer (858 binary)

Root relaxation: objective 6.555000e+02, 73 iterations, 0.00 seconds

    Nodes    |    Current Node    |     Objective Bounds      |     Work
 Expl Unexpl |  Obj  Depth IntInf | Incumbent    BestBd   Gap | It/Node Time

     0     0  655.50000    0    8          -  655.50000      -     -    0s
     0     0  656.50000    0    6          -  656.50000      -     -    0s
     0     0  658.03125    0   22          -  658.03125      -     -    0s
     0     0  658.03846    0   22          -  658.03846      -     -    0s
     0     2  658.03846    0   22          -  658.03846      -     -    0s
* 2001  1323              70     746.0000000  669.50000  10.3%   4.1    0s
H 2104   931                     692.0000000  669.50000  3.25%   4.1    0s
* 2635   677              22     690.0000000  673.00000  2.46%   4.0    0s
H 2812   479                     688.0000000  675.33333  1.84%   3.9    0s
* 2847   393              25     687.0000000  675.33333  1.70%   4.0    0s

Cutting planes:
  Gomory: 6
  Zero half: 9
  Lazy constraints: 204

Explored 3362 nodes (12984 simplex iterations) in 1.09 seconds
Thread count was 8 (of 8 available processors)

Optimal solution found (tolerance 1.00e-04)
Best objective 6.870000000000e+02, best bound 6.870000000000e+02, gap 0.0%
